# Solution for model GasLib-40
# Objective value = 1.2939286124519166e+01
loadshed[innode_1] 0
loadshed[innode_2] 0
loadshed[innode_3] 0
loadshed[innode_4] 0
loadshed[innode_5] 0
loadshed[innode_6] 0
loadshed[innode_7] 0
loadshed[innode_8] 0
loadshed[source_1] -1.8955425855098706e-01
loadshed[source_2] -2.1532225654755655e-02
loadshed[source_3] 2.9293393432341774e-01
loadshed[sink_1] 0
loadshed[sink_2] 0
loadshed[sink_3] 0
loadshed[sink_4] 0
loadshed[sink_5] 0
loadshed[sink_6] 0
loadshed[sink_7] 0
loadshed[sink_8] 0
loadshed[sink_9] 0
loadshed[sink_10] 0
loadshed[sink_11] 0
loadshed[sink_12] 7.9119201780499349e-01
loadshed[sink_13] 0
loadshed[sink_14] 0
loadshed[sink_15] 0
loadshed[sink_16] 0
loadshed[sink_17] 0
loadshed[sink_18] 0
loadshed[sink_19] 0
loadshed[sink_20] 0
loadshed[sink_21] 0
loadshed[sink_22] 0
loadshed[sink_23] 0
loadshed[sink_24] 0
loadshed[sink_25] 0
loadshed[sink_26] 0
loadshed[sink_27] 0
loadshed[sink_28] 0
loadshed[sink_29] 0
flow[source_1,sink_3] 188.056963166064
flow[innode_1,sink_16] 1.6354166666666970e+01
flow[innode_6,sink_13] 2.6988959366159833e+00
flow[sink_13,sink_14] -1.3655270730050685e+01
flow[sink_14,sink_10] -3.0009437396717352e+01
flow[sink_25,sink_26] 1.7920022649081955e+02
flow[sink_26,sink_9] 1.5060238054214852e+02
flow[sink_9,sink_18] 1.3424821387548187e+02
flow[sink_26,sink_4] 1.2243679282005075e+01
flow[sink_4,sink_20] -2.0464654051333810e+01
flow[sink_18,sink_6] 1.1789404720881521e+02
flow[sink_25,innode_8] -1.5534862983272765e+02
flow[sink_6,sink_7] 6.8831547208814754e+01
flow[sink_6,sink_22] 3.2708333333333641e+01
flow[sink_7,sink_24] 3.6123213875480843e+01
flow[sink_22,sink_1] 1.6354166666666970e+01
flow[sink_24,sink_21] 1.9769047208814172e+01
flow[sink_21,sink_12] 3.4148805421475030e+00
flow[sink_7,sink_5] 1.6354166666667368e+01
flow[sink_5,sink_17] 0
flow[sink_17,sink_4] -1.6354166666672256e+01
flow[sink_17,sink_8] 0
flow[sink_3,sink_23] 16.3541666666697
flow[sink_8,sink_20] -1.6354166666668334e+01
flow[sink_25,sink_20] 5.3172987384668943e+01
flow[sink_25,sink_15] -96.077646646044
flow[sink_15,sink_29] -6.2691025608230717e+01
flow[sink_29,sink_28] 1.6354166666667879e+01
flow[sink_29,sink_2] 6.6094954371146613e+01
flow[sink_2,sink_15] 4.9740787704479942e+01
flow[sink_29,innode_7] -1.6149431331271188e+02
flow[innode_4,sink_19] 0
flow[sink_19,innode_3] 3.8586771687131915e+01
flow[innode_4,innode_5] 1.1178027073005136e+02
flow[sink_27,innode_5] -1.1178027073005136e+02
flow[sink_27,sink_19] 9.5426104063384685e+01
flow[sink_10,sink_11] 3.2708333333333641e+01
flow[sink_10,innode_2] -4.0485165709585743e+01
flow[sink_10,innode_3] -3.8586771687131915e+01
flow[innode_6,sink_25] -2.6988959366159833e+00
flow[sink_11,innode_1] 1.6354166666666970e+01
flow[sink_19,innode_2] 4.0485165709585743e+01
flow[source_3,innode_4] 1.1178027073005136e+02
flow[source_2,innode_7] 1.6149431331271188e+02
flow[sink_3,innode_8] 1.5534862983272765e+02
pressure[innode_1] 7.5668448721178834e+01
pressure[innode_2] 7.7959958245744673e+01
pressure[innode_3] 7.7874512209321409e+01
pressure[innode_4] 81.01325
pressure[innode_5] 8.0936361635599937e+01
pressure[innode_6] 7.4391187069676945e+01
pressure[innode_7] 81.01325
pressure[innode_8] 80.3846474124997
pressure[source_1] 81.01325
pressure[source_2] 81.01325
pressure[source_3] 81.01325
pressure[sink_1] 4.2649578992815982e+01
pressure[sink_2] 7.5019649985229080e+01
pressure[sink_3] 80.3846474124997
pressure[sink_4] 6.0213527284414745e+01
pressure[sink_5] 3.7004193502708013e+01
pressure[sink_6] 4.4750656603203353e+01
pressure[sink_7] 4.3805763529602729e+01
pressure[sink_8] 6.0575254037480320e+01
pressure[sink_9] 5.2756279186893408e+01
pressure[sink_10] 7.5820150028782379e+01
pressure[sink_11] 7.5668448721178834e+01
pressure[sink_12] 1.01325
pressure[sink_13] 74.3763085074058
pressure[sink_14] 7.4400745777549119e+01
pressure[sink_15] 7.4857257276066960e+01
pressure[sink_16] 7.4646798886361154e+01
pressure[sink_17] 5.9588524960612183e+01
pressure[sink_18] 4.7898778680386712e+01
pressure[sink_19] 7.7959958245744673e+01
pressure[sink_20] 6.1714909461068608e+01
pressure[sink_21] 2.2284513940361581e+00
pressure[sink_22] 4.3713348135170989e+01
pressure[sink_23] 8.0219929400839916e+01
pressure[sink_24] 2.4473752242383511e+00
pressure[sink_25] 7.4391187069676945e+01
pressure[sink_26] 6.1770220356385465e+01
pressure[sink_27] 8.0008791936271976e+01
pressure[sink_28] 7.6398627498513321e+01
pressure[sink_29] 76.6939097721305
interdiction[source_1,sink_3] 0
interdiction[innode_1,sink_16] 0
interdiction[innode_6,sink_13] 0
interdiction[sink_13,sink_14] 0
interdiction[sink_14,sink_10] 0
interdiction[sink_25,sink_26] 0
interdiction[sink_26,sink_9] 0
interdiction[sink_9,sink_18] 0
interdiction[sink_26,sink_4] 0
interdiction[sink_4,sink_20] 0
interdiction[sink_18,sink_6] 0
interdiction[sink_25,innode_8] 0
interdiction[sink_6,sink_7] 0
interdiction[sink_6,sink_22] 0
interdiction[sink_7,sink_24] 0
interdiction[sink_22,sink_1] 0
interdiction[sink_24,sink_21] 0
interdiction[sink_21,sink_12] 0
interdiction[sink_7,sink_5] 0
interdiction[sink_5,sink_17] 1
interdiction[sink_17,sink_4] 0
interdiction[sink_17,sink_8] 1
interdiction[sink_3,sink_23] 0
interdiction[sink_8,sink_20] 0
interdiction[sink_25,sink_20] 0
interdiction[sink_25,sink_15] 0
interdiction[sink_15,sink_29] 0
interdiction[sink_29,sink_28] 0
interdiction[sink_29,sink_2] 0
interdiction[sink_2,sink_15] 0
interdiction[sink_29,innode_7] 0
interdiction[innode_4,sink_19] 1
interdiction[sink_19,innode_3] 0
interdiction[innode_4,innode_5] 0
interdiction[sink_27,innode_5] 0
interdiction[sink_27,sink_19] 0
interdiction[sink_10,sink_11] 0
interdiction[sink_10,innode_2] 0
interdiction[sink_10,innode_3] 0
interdiction[innode_6,sink_25] 0
interdiction[sink_11,innode_1] 0
interdiction[sink_19,innode_2] 0
interdiction[source_3,innode_4] 0
interdiction[source_2,innode_7] 0
interdiction[sink_3,innode_8] 0
WCcheckFlow[source_1,sink_3] 39
WCcheckFlow[innode_1,sink_16] 1
WCcheckFlow[innode_6,sink_13] 13
WCcheckFlow[sink_13,sink_14] 12
WCcheckFlow[sink_14,sink_10] 11
WCcheckFlow[sink_25,sink_26] 15
WCcheckFlow[sink_26,sink_9] 10
WCcheckFlow[sink_9,sink_18] 9
WCcheckFlow[sink_26,sink_4] 4
WCcheckFlow[sink_4,sink_20] 2
WCcheckFlow[sink_18,sink_6] 8
WCcheckFlow[sink_25,innode_8] -36
WCcheckFlow[sink_6,sink_7] 5
WCcheckFlow[sink_6,sink_22] 2
WCcheckFlow[sink_7,sink_24] 3
WCcheckFlow[sink_22,sink_1] 1
WCcheckFlow[sink_24,sink_21] 2
WCcheckFlow[sink_21,sink_12] 1
WCcheckFlow[sink_7,sink_5] 1
WCcheckFlow[sink_5,sink_17] 0
WCcheckFlow[sink_17,sink_4] -1
WCcheckFlow[sink_17,sink_8] 0
WCcheckFlow[sink_3,sink_23] 1
WCcheckFlow[sink_8,sink_20] -1
WCcheckFlow[sink_25,sink_20] 0
WCcheckFlow[sink_25,sink_15] 6
WCcheckFlow[sink_15,sink_29] 5
WCcheckFlow[sink_29,sink_28] 1
WCcheckFlow[sink_29,sink_2] 1
WCcheckFlow[sink_2,sink_15] 0
WCcheckFlow[sink_29,innode_7] 2
WCcheckFlow[innode_4,sink_19] 0
WCcheckFlow[sink_19,innode_3] -5
WCcheckFlow[innode_4,innode_5] -2
WCcheckFlow[sink_27,innode_5] 3
WCcheckFlow[sink_27,sink_19] -4
WCcheckFlow[sink_10,sink_11] 3
WCcheckFlow[sink_10,innode_2] 1
WCcheckFlow[sink_10,innode_3] 6
WCcheckFlow[innode_6,sink_25] -14
WCcheckFlow[sink_11,innode_1] 2
WCcheckFlow[sink_19,innode_2] 0
WCcheckFlow[source_3,innode_4] -1
WCcheckFlow[source_2,innode_7] -1
WCcheckFlow[sink_3,innode_8] 37
